# Solution for model GT2
# Objective value = 21166
x...0101 0
x...0201 0
x...0301 0
x...0401 0
x...0701 0
x...0801 0
x...0901 0
x...1001 0
x...0102 0
x...0202 0
x...0302 0
x...0402 0
x...0502 0
x...0602 0
x...0702 0
x...0802 0
x...0902 0
x...1002 0
x...1102 0
x...1202 0
x...0103 0
x...0203 0
x...0303 0
x...0403 0
x...0503 0
x...0603 0
x...0703 0
x...0803 0
x...0903 0
x...1003 0
x...1103 0
x...1203 0
x...0104 0
x...0204 0
x...0304 0
x...0404 0
x...0504 0
x...0604 0
x...0704 0
x...0804 0
x...0904 0
x...1004 0
x...1104 0
x...1204 0
x...0105 0
x...0205 0
x...0305 0
x...0405 0
x...0505 0
x...0605 0
x...0705 0
x...0805 0
x...0905 0
x...1005 0
x...1105 0
x...1205 0
x...0106 0
x...0206 0
x...0306 0
x...0406 0
x...0506 0
x...0606 0
x...0706 0
x...0806 0
x...0906 0
x...1006 0
x...1106 0
x...1206 0
x...0507 0
x...0607 0
x...1107 0
x...1207 0
x...0108 0
x...0208 0
x...0308 0
x...0408 0
x...0708 0
x...0808 0
x...0908 0
x...1008 0
x...0109 0
x...0209 0
x...0309 1
x...0409 0
x...0509 0
x...0609 3
x...0709 0
x...0809 0
x...0909 1
x...1009 0
x...1109 0
x...1209 0
x...0110 0
x...0111 2
x...0112 1
x...0113 0
x...0114 0
x...0115 2
x...0116 0
x...0117 0
x...0210 3
x...0211 0
x...0212 0
x...0213 1
x...0214 0
x...0215 0
x...0216 0
x...0217 0
x...0310 0
x...0311 0
x...0312 0
x...0313 0
x...0314 0
x...0315 0
x...0316 0
x...0317 0
x...0410 1
x...0411 2
x...0412 4
x...0413 0
x...0414 0
x...0415 0
x...0416 0
x...0417 0
x...0510 0
x...0511 0
x...0512 0
x...0513 0
x...0514 2
x...0515 0
x...0516 0
x...0517 0
x...0610 0
x...0611 0
x...0612 0
x...0613 0
x...0614 0
x...0615 0
x...0616 0
x...0617 0
x...0710 1
x...0711 0
x...0712 0
x...0713 2
x...0714 0
x...0715 0
x...0716 0
x...0717 1
x...0810 0
x...0811 0
x...0812 0
x...0813 2
x...0814 1
x...0815 0
x...0816 0
x...0817 0
x...0910 0
x...0911 0
x...0912 0
x...0913 0
x...0914 0
x...0915 0
x...0916 0
x...0917 0
x...1010 0
x...1011 0
x...1012 4
x...1013 0
x...1014 0
x...1015 0
x...1016 2
x...1017 0
x...1110 1
x...1111 0
x...1112 0
x...1113 0
x...1114 1
x...1115 0
x...1116 0
x...1117 0
x...1210 0
x...1211 0
x...1212 0
x...1213 0
x...1214 0
x...1215 0
x...1216 0
x...1217 0
